494,311
560,494
504,753
699,463
734,433
699,463
787,512
802,494
858,434
1036,462
826,301
711,406
699,463
641,486
560,494
681,586
898,833
1062,787
927,745
639,672
494,501
494,311
523,188
681,226
681,166
858,434
787,512
641,486
593,420
463,248
593,420
635,702
542,833
711,406
789,193
1137,258
1036,462
1062,787
923,582
927,745
1162,161
1041,46
980,-6
1041,46
685,377
245,723
